Timesteps: 1
s UNSATISFIABLE
real 0.07
user 0.01
sys 0.00
Timesteps: 2
s UNSATISFIABLE
real 0.14
user 0.01
sys 0.00
Timesteps: 3
s UNSATISFIABLE
real 0.08
user 0.03
sys 0.00
Timesteps: 4
s UNSATISFIABLE
real 0.16
user 0.04
sys 0.00
Timesteps: 5
s UNSATISFIABLE
real 0.13
user 0.08
sys 0.00
Timesteps: 6
s UNSATISFIABLE
real 0.19
user 0.12
sys 0.00
Timesteps: 7
s UNSATISFIABLE
real 0.28
user 0.17
sys 0.01
Timesteps: 8
s UNSATISFIABLE
real 0.43
user 0.34
sys 0.01
Timesteps: 9
s UNSATISFIABLE
real 0.86
user 0.76
sys 0.01
Timesteps: 10
s UNSATISFIABLE
real 1.46
user 1.34
sys 0.00
Timesteps: 11
s UNSATISFIABLE
real 2.36
user 2.22
sys 0.01
Timesteps: 12
s UNSATISFIABLE
real 3.89
user 3.73
sys 0.01
Timesteps: 13
s UNSATISFIABLE
real 6.61
user 6.43
sys 0.01
Timesteps: 14
s UNSATISFIABLE
real 9.13
user 8.94
sys 0.02
Timesteps: 15
s UNSATISFIABLE
real 10.53
user 10.29
sys 0.03
Timesteps: 16
s UNSATISFIABLE
real 10.95
user 10.67
sys 0.03
Timesteps: 17
s UNSATISFIABLE
real 10.89
user 10.66
sys 0.02
Timesteps: 18
s UNSATISFIABLE
real 14.83
user 14.54
sys 0.04
Timesteps: 19
s UNSATISFIABLE
real 17.99
user 17.69
sys 0.05
Timesteps: 20
s UNSATISFIABLE
real 25.38
user 25.02
sys 0.07
Timesteps: 21
s UNSATISFIABLE
real 31.34
user 30.94
sys 0.06
Timesteps: 22
s UNSATISFIABLE
real 34.62
user 34.16
sys 0.08
Timesteps: 23
s UNSATISFIABLE
real 56.73
user 56.19
sys 0.09
Timesteps: 24
s UNSATISFIABLE
real 75.85
user 75.21
sys 0.11
Timesteps: 25
s UNSATISFIABLE
real 102.92
user 102.01
sys 0.13
Timesteps: 26
s UNSATISFIABLE
real 161.95
user 160.84
sys 0.21
Timesteps: 27
s UNSATISFIABLE
real 215.35
user 214.01
sys 0.27
Timesteps: 28
s UNSATISFIABLE
real 326.81
user 324.79
sys 0.36
Timesteps: 29
s UNSATISFIABLE
real 412.80
user 410.24
sys 0.39
Timesteps: 30
s UNSATISFIABLE
real 554.72
user 551.92
sys 0.51
Timesteps: 31
s UNSATISFIABLE
real 752.85
user 749.19
sys 0.64
Timesteps: 32
